%SETS
JOBS     = 1..10;
MACHINES = 1..5;
SPEED    = 1;

time        = array3d(JOBS,MACHINES,1..SPEED,[6, 3, 14, 21, 3, 9, 4, 5, 16, 1, 1, 1, 11, 9, 12, 24, 10, 3, 9, 1, 6, 1, 18, 4, 3, 1, 9, 3, 5, 1, 6, 6, 6, 18, 7, 2, 3, 7, 1, 6, 7, 1, 1, 2, 2, 5, 3, 28, 1, 1]);
energy      = array3d(JOBS,MACHINES,1..SPEED,[94, 97, 86, 81, 97, 91, 96, 95, 85, 99, 99, 99, 89, 91, 88, 78, 90, 97, 91, 99, 94, 99, 83, 96, 97, 99, 91, 97, 95, 99, 94, 94, 94, 83, 93, 98, 97, 93, 99, 94, 93, 99, 99, 98, 98, 95, 97, 75, 99, 99]);
precedence  = array2d(JOBS,MACHINES,[4, 3, 1, 2, 0, 4, 3, 2, 0, 1, 0, 1, 4, 3, 2, 0, 4, 3, 2, 1, 4, 0, 2, 1, 3, 4, 3, 2, 1, 0, 2, 0, 4, 1, 3, 2, 4, 1, 0, 3, 2, 3, 1, 4, 0, 4, 2, 0, 3, 1]);
releaseDate = array2d(JOBS,MACHINES,[53, 49, 7, 28, 0, 69, 65, 57, 10, 56, 10, 11, 38, 24, 12, 50, 118, 115, 105, 104, 44, 10, 16, 11, 41, 24, 9, 6, 1, 0, 110, 70, 137, 82, 117, 55, 67, 41, 40, 58, 23, 32, 22, 33, 20, 82, 78, 20, 81, 77]);
dueDate     = array2d(JOBS,MACHINES,[62, 53, 28, 49, 7, 79, 69, 65, 56, 57, 11, 12, 53, 38, 24, 104, 137, 118, 115, 105, 51, 11, 41, 16, 44, 25, 24, 9, 6, 1, 117, 82, 143, 110, 137, 58, 71, 55, 41, 67, 32, 33, 23, 35, 22, 89, 81, 77, 82, 78]);